c File: flat200_3_0.col
c
c SOURCE: Joseph Culberson (joe@cs.ualberta.ca)
c DESCRIPTION: Quasi-random coloring problem
c              generated with flatness = 0
c                             probability = 0.036
c                             known coloring = 3
c                             random seed = 1044
c              Creation Date:  Wed Feb 24 10:39:53 1999
c Maximum degree = 8 Minimum degree = 0
c COLOR VERIFICATION: Using the permuted order
c under simple greedy yields the specified
c coloring number
c Color = 3 specified partitions = 3
c p edge 200 479
c cnf created by edge2cnf
p cnf 600 2237
-1 -2 0
-1 -3 0
-2 -3 0
1 2 3 0
-4 -5 0
-4 -6 0
-5 -6 0
4 5 6 0
-7 -8 0
-7 -9 0
-8 -9 0
7 8 9 0
-10 -11 0
-10 -12 0
-11 -12 0
10 11 12 0
-13 -14 0
-13 -15 0
-14 -15 0
13 14 15 0
-16 -17 0
-16 -18 0
-17 -18 0
16 17 18 0
-19 -20 0
-19 -21 0
-20 -21 0
19 20 21 0
-22 -23 0
-22 -24 0
-23 -24 0
22 23 24 0
-25 -26 0
-25 -27 0
-26 -27 0
25 26 27 0
-28 -29 0
-28 -30 0
-29 -30 0
28 29 30 0
-31 -32 0
-31 -33 0
-32 -33 0
31 32 33 0
-34 -35 0
-34 -36 0
-35 -36 0
34 35 36 0
-37 -38 0
-37 -39 0
-38 -39 0
37 38 39 0
-40 -41 0
-40 -42 0
-41 -42 0
40 41 42 0
-43 -44 0
-43 -45 0
-44 -45 0
43 44 45 0
-46 -47 0
-46 -48 0
-47 -48 0
46 47 48 0
-49 -50 0
-49 -51 0
-50 -51 0
49 50 51 0
-52 -53 0
-52 -54 0
-53 -54 0
52 53 54 0
-55 -56 0
-55 -57 0
-56 -57 0
55 56 57 0
-58 -59 0
-58 -60 0
-59 -60 0
58 59 60 0
-61 -62 0
-61 -63 0
-62 -63 0
61 62 63 0
-64 -65 0
-64 -66 0
-65 -66 0
64 65 66 0
-67 -68 0
-67 -69 0
-68 -69 0
67 68 69 0
-70 -71 0
-70 -72 0
-71 -72 0
70 71 72 0
-73 -74 0
-73 -75 0
-74 -75 0
73 74 75 0
-76 -77 0
-76 -78 0
-77 -78 0
76 77 78 0
-79 -80 0
-79 -81 0
-80 -81 0
79 80 81 0
-82 -83 0
-82 -84 0
-83 -84 0
82 83 84 0
-85 -86 0
-85 -87 0
-86 -87 0
85 86 87 0
-88 -89 0
-88 -90 0
-89 -90 0
88 89 90 0
-91 -92 0
-91 -93 0
-92 -93 0
91 92 93 0
-94 -95 0
-94 -96 0
-95 -96 0
94 95 96 0
-97 -98 0
-97 -99 0
-98 -99 0
97 98 99 0
-100 -101 0
-100 -102 0
-101 -102 0
100 101 102 0
-103 -104 0
-103 -105 0
-104 -105 0
103 104 105 0
-106 -107 0
-106 -108 0
-107 -108 0
106 107 108 0
-109 -110 0
-109 -111 0
-110 -111 0
109 110 111 0
-112 -113 0
-112 -114 0
-113 -114 0
112 113 114 0
-115 -116 0
-115 -117 0
-116 -117 0
115 116 117 0
-118 -119 0
-118 -120 0
-119 -120 0
118 119 120 0
-121 -122 0
-121 -123 0
-122 -123 0
121 122 123 0
-124 -125 0
-124 -126 0
-125 -126 0
124 125 126 0
-127 -128 0
-127 -129 0
-128 -129 0
127 128 129 0
-130 -131 0
-130 -132 0
-131 -132 0
130 131 132 0
-133 -134 0
-133 -135 0
-134 -135 0
133 134 135 0
-136 -137 0
-136 -138 0
-137 -138 0
136 137 138 0
-139 -140 0
-139 -141 0
-140 -141 0
139 140 141 0
-142 -143 0
-142 -144 0
-143 -144 0
142 143 144 0
-145 -146 0
-145 -147 0
-146 -147 0
145 146 147 0
-148 -149 0
-148 -150 0
-149 -150 0
148 149 150 0
-151 -152 0
-151 -153 0
-152 -153 0
151 152 153 0
-154 -155 0
-154 -156 0
-155 -156 0
154 155 156 0
-157 -158 0
-157 -159 0
-158 -159 0
157 158 159 0
-160 -161 0
-160 -162 0
-161 -162 0
160 161 162 0
-163 -164 0
-163 -165 0
-164 -165 0
163 164 165 0
-166 -167 0
-166 -168 0
-167 -168 0
166 167 168 0
-169 -170 0
-169 -171 0
-170 -171 0
169 170 171 0
-172 -173 0
-172 -174 0
-173 -174 0
172 173 174 0
-175 -176 0
-175 -177 0
-176 -177 0
175 176 177 0
-178 -179 0
-178 -180 0
-179 -180 0
178 179 180 0
-181 -182 0
-181 -183 0
-182 -183 0
181 182 183 0
-184 -185 0
-184 -186 0
-185 -186 0
184 185 186 0
-187 -188 0
-187 -189 0
-188 -189 0
187 188 189 0
-190 -191 0
-190 -192 0
-191 -192 0
190 191 192 0
-193 -194 0
-193 -195 0
-194 -195 0
193 194 195 0
-196 -197 0
-196 -198 0
-197 -198 0
196 197 198 0
-199 -200 0
-199 -201 0
-200 -201 0
199 200 201 0
-202 -203 0
-202 -204 0
-203 -204 0
202 203 204 0
-205 -206 0
-205 -207 0
-206 -207 0
205 206 207 0
-208 -209 0
-208 -210 0
-209 -210 0
208 209 210 0
-211 -212 0
-211 -213 0
-212 -213 0
211 212 213 0
-214 -215 0
-214 -216 0
-215 -216 0
214 215 216 0
-217 -218 0
-217 -219 0
-218 -219 0
217 218 219 0
-220 -221 0
-220 -222 0
-221 -222 0
220 221 222 0
-223 -224 0
-223 -225 0
-224 -225 0
223 224 225 0
-226 -227 0
-226 -228 0
-227 -228 0
226 227 228 0
-229 -230 0
-229 -231 0
-230 -231 0
229 230 231 0
-232 -233 0
-232 -234 0
-233 -234 0
232 233 234 0
-235 -236 0
-235 -237 0
-236 -237 0
235 236 237 0
-238 -239 0
-238 -240 0
-239 -240 0
238 239 240 0
-241 -242 0
-241 -243 0
-242 -243 0
241 242 243 0
-244 -245 0
-244 -246 0
-245 -246 0
244 245 246 0
-247 -248 0
-247 -249 0
-248 -249 0
247 248 249 0
-250 -251 0
-250 -252 0
-251 -252 0
250 251 252 0
-253 -254 0
-253 -255 0
-254 -255 0
253 254 255 0
-256 -257 0
-256 -258 0
-257 -258 0
256 257 258 0
-259 -260 0
-259 -261 0
-260 -261 0
259 260 261 0
-262 -263 0
-262 -264 0
-263 -264 0
262 263 264 0
-265 -266 0
-265 -267 0
-266 -267 0
265 266 267 0
-268 -269 0
-268 -270 0
-269 -270 0
268 269 270 0
-271 -272 0
-271 -273 0
-272 -273 0
271 272 273 0
-274 -275 0
-274 -276 0
-275 -276 0
274 275 276 0
-277 -278 0
-277 -279 0
-278 -279 0
277 278 279 0
-280 -281 0
-280 -282 0
-281 -282 0
280 281 282 0
-283 -284 0
-283 -285 0
-284 -285 0
283 284 285 0
-286 -287 0
-286 -288 0
-287 -288 0
286 287 288 0
-289 -290 0
-289 -291 0
-290 -291 0
289 290 291 0
-292 -293 0
-292 -294 0
-293 -294 0
292 293 294 0
-295 -296 0
-295 -297 0
-296 -297 0
295 296 297 0
-298 -299 0
-298 -300 0
-299 -300 0
298 299 300 0
-301 -302 0
-301 -303 0
-302 -303 0
301 302 303 0
-304 -305 0
-304 -306 0
-305 -306 0
304 305 306 0
-307 -308 0
-307 -309 0
-308 -309 0
307 308 309 0
-310 -311 0
-310 -312 0
-311 -312 0
310 311 312 0
-313 -314 0
-313 -315 0
-314 -315 0
313 314 315 0
-316 -317 0
-316 -318 0
-317 -318 0
316 317 318 0
-319 -320 0
-319 -321 0
-320 -321 0
319 320 321 0
-322 -323 0
-322 -324 0
-323 -324 0
322 323 324 0
-325 -326 0
-325 -327 0
-326 -327 0
325 326 327 0
-328 -329 0
-328 -330 0
-329 -330 0
328 329 330 0
-331 -332 0
-331 -333 0
-332 -333 0
331 332 333 0
-334 -335 0
-334 -336 0
-335 -336 0
334 335 336 0
-337 -338 0
-337 -339 0
-338 -339 0
337 338 339 0
-340 -341 0
-340 -342 0
-341 -342 0
340 341 342 0
-343 -344 0
-343 -345 0
-344 -345 0
343 344 345 0
-346 -347 0
-346 -348 0
-347 -348 0
346 347 348 0
-349 -350 0
-349 -351 0
-350 -351 0
349 350 351 0
-352 -353 0
-352 -354 0
-353 -354 0
352 353 354 0
-355 -356 0
-355 -357 0
-356 -357 0
355 356 357 0
-358 -359 0
-358 -360 0
-359 -360 0
358 359 360 0
-361 -362 0
-361 -363 0
-362 -363 0
361 362 363 0
-364 -365 0
-364 -366 0
-365 -366 0
364 365 366 0
-367 -368 0
-367 -369 0
-368 -369 0
367 368 369 0
-370 -371 0
-370 -372 0
-371 -372 0
370 371 372 0
-373 -374 0
-373 -375 0
-374 -375 0
373 374 375 0
-376 -377 0
-376 -378 0
-377 -378 0
376 377 378 0
-379 -380 0
-379 -381 0
-380 -381 0
379 380 381 0
-382 -383 0
-382 -384 0
-383 -384 0
382 383 384 0
-385 -386 0
-385 -387 0
-386 -387 0
385 386 387 0
-388 -389 0
-388 -390 0
-389 -390 0
388 389 390 0
-391 -392 0
-391 -393 0
-392 -393 0
391 392 393 0
-394 -395 0
-394 -396 0
-395 -396 0
394 395 396 0
-397 -398 0
-397 -399 0
-398 -399 0
397 398 399 0
-400 -401 0
-400 -402 0
-401 -402 0
400 401 402 0
-403 -404 0
-403 -405 0
-404 -405 0
403 404 405 0
-406 -407 0
-406 -408 0
-407 -408 0
406 407 408 0
-409 -410 0
-409 -411 0
-410 -411 0
409 410 411 0
-412 -413 0
-412 -414 0
-413 -414 0
412 413 414 0
-415 -416 0
-415 -417 0
-416 -417 0
415 416 417 0
-418 -419 0
-418 -420 0
-419 -420 0
418 419 420 0
-421 -422 0
-421 -423 0
-422 -423 0
421 422 423 0
-424 -425 0
-424 -426 0
-425 -426 0
424 425 426 0
-427 -428 0
-427 -429 0
-428 -429 0
427 428 429 0
-430 -431 0
-430 -432 0
-431 -432 0
430 431 432 0
-433 -434 0
-433 -435 0
-434 -435 0
433 434 435 0
-436 -437 0
-436 -438 0
-437 -438 0
436 437 438 0
-439 -440 0
-439 -441 0
-440 -441 0
439 440 441 0
-442 -443 0
-442 -444 0
-443 -444 0
442 443 444 0
-445 -446 0
-445 -447 0
-446 -447 0
445 446 447 0
-448 -449 0
-448 -450 0
-449 -450 0
448 449 450 0
-451 -452 0
-451 -453 0
-452 -453 0
451 452 453 0
-454 -455 0
-454 -456 0
-455 -456 0
454 455 456 0
-457 -458 0
-457 -459 0
-458 -459 0
457 458 459 0
-460 -461 0
-460 -462 0
-461 -462 0
460 461 462 0
-463 -464 0
-463 -465 0
-464 -465 0
463 464 465 0
-466 -467 0
-466 -468 0
-467 -468 0
466 467 468 0
-469 -470 0
-469 -471 0
-470 -471 0
469 470 471 0
-472 -473 0
-472 -474 0
-473 -474 0
472 473 474 0
-475 -476 0
-475 -477 0
-476 -477 0
475 476 477 0
-478 -479 0
-478 -480 0
-479 -480 0
478 479 480 0
-481 -482 0
-481 -483 0
-482 -483 0
481 482 483 0
-484 -485 0
-484 -486 0
-485 -486 0
484 485 486 0
-487 -488 0
-487 -489 0
-488 -489 0
487 488 489 0
-490 -491 0
-490 -492 0
-491 -492 0
490 491 492 0
-493 -494 0
-493 -495 0
-494 -495 0
493 494 495 0
-496 -497 0
-496 -498 0
-497 -498 0
496 497 498 0
-499 -500 0
-499 -501 0
-500 -501 0
499 500 501 0
-502 -503 0
-502 -504 0
-503 -504 0
502 503 504 0
-505 -506 0
-505 -507 0
-506 -507 0
505 506 507 0
-508 -509 0
-508 -510 0
-509 -510 0
508 509 510 0
-511 -512 0
-511 -513 0
-512 -513 0
511 512 513 0
-514 -515 0
-514 -516 0
-515 -516 0
514 515 516 0
-517 -518 0
-517 -519 0
-518 -519 0
517 518 519 0
-520 -521 0
-520 -522 0
-521 -522 0
520 521 522 0
-523 -524 0
-523 -525 0
-524 -525 0
523 524 525 0
-526 -527 0
-526 -528 0
-527 -528 0
526 527 528 0
-529 -530 0
-529 -531 0
-530 -531 0
529 530 531 0
-532 -533 0
-532 -534 0
-533 -534 0
532 533 534 0
-535 -536 0
-535 -537 0
-536 -537 0
535 536 537 0
-538 -539 0
-538 -540 0
-539 -540 0
538 539 540 0
-541 -542 0
-541 -543 0
-542 -543 0
541 542 543 0
-544 -545 0
-544 -546 0
-545 -546 0
544 545 546 0
-547 -548 0
-547 -549 0
-548 -549 0
547 548 549 0
-550 -551 0
-550 -552 0
-551 -552 0
550 551 552 0
-553 -554 0
-553 -555 0
-554 -555 0
553 554 555 0
-556 -557 0
-556 -558 0
-557 -558 0
556 557 558 0
-559 -560 0
-559 -561 0
-560 -561 0
559 560 561 0
-562 -563 0
-562 -564 0
-563 -564 0
562 563 564 0
-565 -566 0
-565 -567 0
-566 -567 0
565 566 567 0
-568 -569 0
-568 -570 0
-569 -570 0
568 569 570 0
-571 -572 0
-571 -573 0
-572 -573 0
571 572 573 0
-574 -575 0
-574 -576 0
-575 -576 0
574 575 576 0
-577 -578 0
-577 -579 0
-578 -579 0
577 578 579 0
-580 -581 0
-580 -582 0
-581 -582 0
580 581 582 0
-583 -584 0
-583 -585 0
-584 -585 0
583 584 585 0
-586 -587 0
-586 -588 0
-587 -588 0
586 587 588 0
-589 -590 0
-589 -591 0
-590 -591 0
589 590 591 0
-592 -593 0
-592 -594 0
-593 -594 0
592 593 594 0
-595 -596 0
-595 -597 0
-596 -597 0
595 596 597 0
-598 -599 0
-598 -600 0
-599 -600 0
598 599 600 0
-61 -1 0
-62 -2 0
-63 -3 0
-157 -1 0
-158 -2 0
-159 -3 0
-439 -1 0
-440 -2 0
-441 -3 0
-511 -1 0
-512 -2 0
-513 -3 0
-58 -4 0
-59 -5 0
-60 -6 0
-64 -4 0
-65 -5 0
-66 -6 0
-127 -4 0
-128 -5 0
-129 -6 0
-430 -4 0
-431 -5 0
-432 -6 0
-487 -4 0
-488 -5 0
-489 -6 0
-499 -4 0
-500 -5 0
-501 -6 0
-148 -7 0
-149 -8 0
-150 -9 0
-277 -7 0
-278 -8 0
-279 -9 0
-328 -7 0
-329 -8 0
-330 -9 0
-211 -10 0
-212 -11 0
-213 -12 0
-394 -10 0
-395 -11 0
-396 -12 0
-421 -10 0
-422 -11 0
-423 -12 0
-436 -10 0
-437 -11 0
-438 -12 0
-34 -13 0
-35 -14 0
-36 -15 0
-61 -13 0
-62 -14 0
-63 -15 0
-37 -16 0
-38 -17 0
-39 -18 0
-46 -16 0
-47 -17 0
-48 -18 0
-442 -16 0
-443 -17 0
-444 -18 0
-457 -16 0
-458 -17 0
-459 -18 0
-475 -16 0
-476 -17 0
-477 -18 0
-541 -16 0
-542 -17 0
-543 -18 0
-553 -16 0
-554 -17 0
-555 -18 0
-409 -19 0
-410 -20 0
-411 -21 0
-430 -19 0
-431 -20 0
-432 -21 0
-121 -22 0
-122 -23 0
-123 -24 0
-163 -22 0
-164 -23 0
-165 -24 0
-334 -22 0
-335 -23 0
-336 -24 0
-457 -22 0
-458 -23 0
-459 -24 0
-472 -22 0
-473 -23 0
-474 -24 0
-553 -25 0
-554 -26 0
-555 -27 0
-559 -25 0
-560 -26 0
-561 -27 0
-58 -28 0
-59 -29 0
-60 -30 0
-61 -28 0
-62 -29 0
-63 -30 0
-499 -28 0
-500 -29 0
-501 -30 0
-154 -31 0
-155 -32 0
-156 -33 0
-253 -31 0
-254 -32 0
-255 -33 0
-268 -31 0
-269 -32 0
-270 -33 0
-271 -31 0
-272 -32 0
-273 -33 0
-439 -31 0
-440 -32 0
-441 -33 0
-475 -31 0
-476 -32 0
-477 -33 0
-538 -31 0
-539 -32 0
-540 -33 0
-127 -34 0
-128 -35 0
-129 -36 0
-430 -34 0
-431 -35 0
-432 -36 0
-451 -34 0
-452 -35 0
-453 -36 0
-481 -34 0
-482 -35 0
-483 -36 0
-52 -37 0
-53 -38 0
-54 -39 0
-400 -37 0
-401 -38 0
-402 -39 0
-139 -40 0
-140 -41 0
-141 -42 0
-283 -40 0
-284 -41 0
-285 -42 0
-370 -40 0
-371 -41 0
-372 -42 0
-397 -40 0
-398 -41 0
-399 -42 0
-82 -43 0
-83 -44 0
-84 -45 0
-151 -43 0
-152 -44 0
-153 -45 0
-217 -43 0
-218 -44 0
-219 -45 0
-349 -43 0
-350 -44 0
-351 -45 0
-409 -43 0
-410 -44 0
-411 -45 0
-418 -43 0
-419 -44 0
-420 -45 0
-577 -43 0
-578 -44 0
-579 -45 0
-112 -46 0
-113 -47 0
-114 -48 0
-184 -46 0
-185 -47 0
-186 -48 0
-196 -46 0
-197 -47 0
-198 -48 0
-214 -46 0
-215 -47 0
-216 -48 0
-76 -49 0
-77 -50 0
-78 -51 0
-82 -49 0
-83 -50 0
-84 -51 0
-133 -49 0
-134 -50 0
-135 -51 0
-367 -49 0
-368 -50 0
-369 -51 0
-382 -49 0
-383 -50 0
-384 -51 0
-502 -49 0
-503 -50 0
-504 -51 0
-529 -49 0
-530 -50 0
-531 -51 0
-127 -52 0
-128 -53 0
-129 -54 0
-136 -52 0
-137 -53 0
-138 -54 0
-370 -52 0
-371 -53 0
-372 -54 0
-442 -52 0
-443 -53 0
-444 -54 0
-550 -52 0
-551 -53 0
-552 -54 0
-544 -55 0
-545 -56 0
-546 -57 0
-211 -58 0
-212 -59 0
-213 -60 0
-226 -58 0
-227 -59 0
-228 -60 0
-385 -58 0
-386 -59 0
-387 -60 0
-406 -58 0
-407 -59 0
-408 -60 0
-571 -58 0
-572 -59 0
-573 -60 0
-598 -58 0
-599 -59 0
-600 -60 0
-133 -61 0
-134 -62 0
-135 -63 0
-595 -61 0
-596 -62 0
-597 -63 0
-370 -64 0
-371 -65 0
-372 -66 0
-571 -64 0
-572 -65 0
-573 -66 0
-166 -67 0
-167 -68 0
-168 -69 0
-238 -67 0
-239 -68 0
-240 -69 0
-232 -70 0
-233 -71 0
-234 -72 0
-286 -70 0
-287 -71 0
-288 -72 0
-331 -70 0
-332 -71 0
-333 -72 0
-352 -70 0
-353 -71 0
-354 -72 0
-442 -70 0
-443 -71 0
-444 -72 0
-598 -70 0
-599 -71 0
-600 -72 0
-91 -73 0
-92 -74 0
-93 -75 0
-166 -73 0
-167 -74 0
-168 -75 0
-178 -73 0
-179 -74 0
-180 -75 0
-322 -73 0
-323 -74 0
-324 -75 0
-445 -73 0
-446 -74 0
-447 -75 0
-595 -73 0
-596 -74 0
-597 -75 0
-160 -76 0
-161 -77 0
-162 -78 0
-172 -76 0
-173 -77 0
-174 -78 0
-373 -76 0
-374 -77 0
-375 -78 0
-376 -76 0
-377 -77 0
-378 -78 0
-472 -76 0
-473 -77 0
-474 -78 0
-304 -79 0
-305 -80 0
-306 -81 0
-445 -79 0
-446 -80 0
-447 -81 0
-559 -79 0
-560 -80 0
-561 -81 0
-568 -79 0
-569 -80 0
-570 -81 0
-571 -79 0
-572 -80 0
-573 -81 0
-139 -82 0
-140 -83 0
-141 -84 0
-190 -82 0
-191 -83 0
-192 -84 0
-454 -82 0
-455 -83 0
-456 -84 0
-187 -85 0
-188 -86 0
-189 -87 0
-409 -85 0
-410 -86 0
-411 -87 0
-583 -85 0
-584 -86 0
-585 -87 0
-175 -88 0
-176 -89 0
-177 -90 0
-208 -88 0
-209 -89 0
-210 -90 0
-211 -88 0
-212 -89 0
-213 -90 0
-445 -88 0
-446 -89 0
-447 -90 0
-448 -88 0
-449 -89 0
-450 -90 0
-457 -88 0
-458 -89 0
-459 -90 0
-367 -91 0
-368 -92 0
-369 -93 0
-550 -91 0
-551 -92 0
-552 -93 0
-169 -94 0
-170 -95 0
-171 -96 0
-193 -94 0
-194 -95 0
-195 -96 0
-259 -94 0
-260 -95 0
-261 -96 0
-415 -94 0
-416 -95 0
-417 -96 0
-457 -94 0
-458 -95 0
-459 -96 0
-460 -94 0
-461 -95 0
-462 -96 0
-508 -94 0
-509 -95 0
-510 -96 0
-553 -94 0
-554 -95 0
-555 -96 0
-466 -97 0
-467 -98 0
-468 -99 0
-481 -97 0
-482 -98 0
-483 -99 0
-553 -97 0
-554 -98 0
-555 -99 0
-274 -100 0
-275 -101 0
-276 -102 0
-328 -100 0
-329 -101 0
-330 -102 0
-262 -103 0
-263 -104 0
-264 -105 0
-418 -103 0
-419 -104 0
-420 -105 0
-190 -106 0
-191 -107 0
-192 -108 0
-355 -106 0
-356 -107 0
-357 -108 0
-409 -106 0
-410 -107 0
-411 -108 0
-484 -106 0
-485 -107 0
-486 -108 0
-496 -106 0
-497 -107 0
-498 -108 0
-538 -106 0
-539 -107 0
-540 -108 0
-220 -109 0
-221 -110 0
-222 -111 0
-238 -109 0
-239 -110 0
-240 -111 0
-292 -109 0
-293 -110 0
-294 -111 0
-364 -109 0
-365 -110 0
-366 -111 0
-403 -109 0
-404 -110 0
-405 -111 0
-514 -109 0
-515 -110 0
-516 -111 0
-586 -109 0
-587 -110 0
-588 -111 0
-187 -112 0
-188 -113 0
-189 -114 0
-217 -112 0
-218 -113 0
-219 -114 0
-253 -112 0
-254 -113 0
-255 -114 0
-160 -115 0
-161 -116 0
-162 -117 0
-199 -115 0
-200 -116 0
-201 -117 0
-307 -115 0
-308 -116 0
-309 -117 0
-493 -115 0
-494 -116 0
-495 -117 0
-268 -118 0
-269 -119 0
-270 -120 0
-463 -118 0
-464 -119 0
-465 -120 0
-181 -121 0
-182 -122 0
-183 -123 0
-208 -121 0
-209 -122 0
-210 -123 0
-256 -121 0
-257 -122 0
-258 -123 0
-289 -121 0
-290 -122 0
-291 -123 0
-322 -121 0
-323 -122 0
-324 -123 0
-448 -121 0
-449 -122 0
-450 -123 0
-298 -124 0
-299 -125 0
-300 -126 0
-352 -124 0
-353 -125 0
-354 -126 0
-400 -124 0
-401 -125 0
-402 -126 0
-427 -124 0
-428 -125 0
-429 -126 0
-472 -124 0
-473 -125 0
-474 -126 0
-541 -124 0
-542 -125 0
-543 -126 0
-574 -124 0
-575 -125 0
-576 -126 0
-433 -127 0
-434 -128 0
-435 -129 0
-535 -127 0
-536 -128 0
-537 -129 0
-232 -130 0
-233 -131 0
-234 -132 0
-340 -130 0
-341 -131 0
-342 -132 0
-451 -130 0
-452 -131 0
-453 -132 0
-463 -130 0
-464 -131 0
-465 -132 0
-496 -130 0
-497 -131 0
-498 -132 0
-523 -130 0
-524 -131 0
-525 -132 0
-199 -133 0
-200 -134 0
-201 -135 0
-244 -133 0
-245 -134 0
-246 -135 0
-325 -133 0
-326 -134 0
-327 -135 0
-571 -133 0
-572 -134 0
-573 -135 0
-352 -136 0
-353 -137 0
-354 -138 0
-379 -136 0
-380 -137 0
-381 -138 0
-391 -136 0
-392 -137 0
-393 -138 0
-472 -136 0
-473 -137 0
-474 -138 0
-265 -139 0
-266 -140 0
-267 -141 0
-277 -139 0
-278 -140 0
-279 -141 0
-319 -139 0
-320 -140 0
-321 -141 0
-340 -139 0
-341 -140 0
-342 -141 0
-586 -139 0
-587 -140 0
-588 -141 0
-592 -139 0
-593 -140 0
-594 -141 0
-226 -142 0
-227 -143 0
-228 -144 0
-238 -142 0
-239 -143 0
-240 -144 0
-355 -142 0
-356 -143 0
-357 -144 0
-388 -142 0
-389 -143 0
-390 -144 0
-472 -145 0
-473 -146 0
-474 -147 0
-571 -145 0
-572 -146 0
-573 -147 0
-151 -148 0
-152 -149 0
-153 -150 0
-319 -148 0
-320 -149 0
-321 -150 0
-433 -148 0
-434 -149 0
-435 -150 0
-505 -148 0
-506 -149 0
-507 -150 0
-268 -151 0
-269 -152 0
-270 -153 0
-397 -151 0
-398 -152 0
-399 -153 0
-454 -151 0
-455 -152 0
-456 -153 0
-388 -154 0
-389 -155 0
-390 -156 0
-568 -154 0
-569 -155 0
-570 -156 0
-166 -160 0
-167 -161 0
-168 -162 0
-382 -160 0
-383 -161 0
-384 -162 0
-238 -163 0
-239 -164 0
-240 -165 0
-361 -163 0
-362 -164 0
-363 -165 0
-394 -163 0
-395 -164 0
-396 -165 0
-451 -163 0
-452 -164 0
-453 -165 0
-541 -163 0
-542 -164 0
-543 -165 0
-595 -163 0
-596 -164 0
-597 -165 0
-178 -166 0
-179 -167 0
-180 -168 0
-193 -166 0
-194 -167 0
-195 -168 0
-355 -166 0
-356 -167 0
-357 -168 0
-496 -166 0
-497 -167 0
-498 -168 0
-181 -169 0
-182 -170 0
-183 -171 0
-208 -169 0
-209 -170 0
-210 -171 0
-556 -169 0
-557 -170 0
-558 -171 0
-190 -172 0
-191 -173 0
-192 -174 0
-271 -172 0
-272 -173 0
-273 -174 0
-349 -172 0
-350 -173 0
-351 -174 0
-415 -172 0
-416 -173 0
-417 -174 0
-436 -172 0
-437 -173 0
-438 -174 0
-253 -175 0
-254 -176 0
-255 -177 0
-571 -175 0
-572 -176 0
-573 -177 0
-196 -178 0
-197 -179 0
-198 -180 0
-517 -178 0
-518 -179 0
-519 -180 0
-586 -178 0
-587 -179 0
-588 -180 0
-511 -181 0
-512 -182 0
-513 -183 0
-526 -181 0
-527 -182 0
-528 -183 0
-199 -184 0
-200 -185 0
-201 -186 0
-232 -184 0
-233 -185 0
-234 -186 0
-520 -184 0
-521 -185 0
-522 -186 0
-532 -184 0
-533 -185 0
-534 -186 0
-244 -187 0
-245 -188 0
-246 -189 0
-340 -187 0
-341 -188 0
-342 -189 0
-532 -187 0
-533 -188 0
-534 -189 0
-193 -190 0
-194 -191 0
-195 -192 0
-274 -190 0
-275 -191 0
-276 -192 0
-319 -190 0
-320 -191 0
-321 -192 0
-394 -190 0
-395 -191 0
-396 -192 0
-421 -193 0
-422 -194 0
-423 -195 0
-478 -193 0
-479 -194 0
-480 -195 0
-214 -196 0
-215 -197 0
-216 -198 0
-394 -196 0
-395 -197 0
-396 -198 0
-469 -196 0
-470 -197 0
-471 -198 0
-385 -199 0
-386 -200 0
-387 -201 0
-580 -199 0
-581 -200 0
-582 -201 0
-223 -202 0
-224 -203 0
-225 -204 0
-280 -202 0
-281 -203 0
-282 -204 0
-298 -202 0
-299 -203 0
-300 -204 0
-316 -202 0
-317 -203 0
-318 -204 0
-424 -202 0
-425 -203 0
-426 -204 0
-454 -202 0
-455 -203 0
-456 -204 0
-295 -205 0
-296 -206 0
-297 -207 0
-463 -205 0
-464 -206 0
-465 -207 0
-523 -205 0
-524 -206 0
-525 -207 0
-559 -205 0
-560 -206 0
-561 -207 0
-373 -208 0
-374 -209 0
-375 -210 0
-406 -208 0
-407 -209 0
-408 -210 0
-274 -211 0
-275 -212 0
-276 -213 0
-349 -211 0
-350 -212 0
-351 -213 0
-568 -211 0
-569 -212 0
-570 -213 0
-439 -214 0
-440 -215 0
-441 -216 0
-514 -214 0
-515 -215 0
-516 -216 0
-583 -214 0
-584 -215 0
-585 -216 0
-226 -217 0
-227 -218 0
-228 -219 0
-367 -217 0
-368 -218 0
-369 -219 0
-430 -217 0
-431 -218 0
-432 -219 0
-301 -220 0
-302 -221 0
-303 -222 0
-448 -220 0
-449 -221 0
-450 -222 0
-466 -220 0
-467 -221 0
-468 -222 0
-490 -220 0
-491 -221 0
-492 -222 0
-250 -223 0
-251 -224 0
-252 -225 0
-256 -223 0
-257 -224 0
-258 -225 0
-523 -223 0
-524 -224 0
-525 -225 0
-553 -226 0
-554 -227 0
-555 -228 0
-577 -226 0
-578 -227 0
-579 -228 0
-580 -226 0
-581 -227 0
-582 -228 0
-598 -229 0
-599 -230 0
-600 -231 0
-283 -232 0
-284 -233 0
-285 -234 0
-352 -232 0
-353 -233 0
-354 -234 0
-436 -232 0
-437 -233 0
-438 -234 0
-535 -232 0
-536 -233 0
-537 -234 0
-556 -232 0
-557 -233 0
-558 -234 0
-271 -235 0
-272 -236 0
-273 -237 0
-373 -235 0
-374 -236 0
-375 -237 0
-391 -235 0
-392 -236 0
-393 -237 0
-589 -235 0
-590 -236 0
-591 -237 0
-283 -238 0
-284 -239 0
-285 -240 0
-343 -238 0
-344 -239 0
-345 -240 0
-580 -238 0
-581 -239 0
-582 -240 0
-586 -238 0
-587 -239 0
-588 -240 0
-280 -241 0
-281 -242 0
-282 -243 0
-301 -241 0
-302 -242 0
-303 -243 0
-412 -241 0
-413 -242 0
-414 -243 0
-508 -241 0
-509 -242 0
-510 -243 0
-313 -244 0
-314 -245 0
-315 -246 0
-301 -247 0
-302 -248 0
-303 -249 0
-499 -247 0
-500 -248 0
-501 -249 0
-508 -247 0
-509 -248 0
-510 -249 0
-535 -247 0
-536 -248 0
-537 -249 0
-586 -247 0
-587 -248 0
-588 -249 0
-313 -250 0
-314 -251 0
-315 -252 0
-430 -250 0
-431 -251 0
-432 -252 0
-481 -250 0
-482 -251 0
-483 -252 0
-490 -250 0
-491 -251 0
-492 -252 0
-361 -253 0
-362 -254 0
-363 -255 0
-274 -256 0
-275 -257 0
-276 -258 0
-295 -256 0
-296 -257 0
-297 -258 0
-400 -256 0
-401 -257 0
-402 -258 0
-427 -256 0
-428 -257 0
-429 -258 0
-463 -256 0
-464 -257 0
-465 -258 0
-499 -256 0
-500 -257 0
-501 -258 0
-286 -259 0
-287 -260 0
-288 -261 0
-514 -259 0
-515 -260 0
-516 -261 0
-265 -262 0
-266 -263 0
-267 -264 0
-463 -262 0
-464 -263 0
-465 -264 0
-298 -265 0
-299 -266 0
-300 -267 0
-532 -265 0
-533 -266 0
-534 -267 0
-595 -265 0
-596 -266 0
-597 -267 0
-589 -268 0
-590 -269 0
-591 -270 0
-385 -271 0
-386 -272 0
-387 -273 0
-394 -271 0
-395 -272 0
-396 -273 0
-586 -271 0
-587 -272 0
-588 -273 0
-505 -274 0
-506 -275 0
-507 -276 0
-508 -274 0
-509 -275 0
-510 -276 0
-568 -274 0
-569 -275 0
-570 -276 0
-313 -277 0
-314 -278 0
-315 -279 0
-355 -277 0
-356 -278 0
-357 -279 0
-433 -277 0
-434 -278 0
-435 -279 0
-472 -277 0
-473 -278 0
-474 -279 0
-406 -280 0
-407 -281 0
-408 -282 0
-583 -283 0
-584 -284 0
-585 -285 0
-301 -289 0
-302 -290 0
-303 -291 0
-373 -289 0
-374 -290 0
-375 -291 0
-328 -292 0
-329 -293 0
-330 -294 0
-436 -292 0
-437 -293 0
-438 -294 0
-460 -292 0
-461 -293 0
-462 -294 0
-547 -292 0
-548 -293 0
-549 -294 0
-406 -295 0
-407 -296 0
-408 -297 0
-484 -295 0
-485 -296 0
-486 -297 0
-526 -295 0
-527 -296 0
-528 -297 0
-559 -295 0
-560 -296 0
-561 -297 0
-316 -298 0
-317 -299 0
-318 -300 0
-400 -298 0
-401 -299 0
-402 -300 0
-439 -298 0
-440 -299 0
-441 -300 0
-496 -298 0
-497 -299 0
-498 -300 0
-583 -298 0
-584 -299 0
-585 -300 0
-529 -301 0
-530 -302 0
-531 -303 0
-391 -304 0
-392 -305 0
-393 -306 0
-373 -307 0
-374 -308 0
-375 -309 0
-376 -307 0
-377 -308 0
-378 -309 0
-397 -307 0
-398 -308 0
-399 -309 0
-370 -313 0
-371 -314 0
-372 -315 0
-523 -313 0
-524 -314 0
-525 -315 0
-394 -316 0
-395 -317 0
-396 -318 0
-445 -316 0
-446 -317 0
-447 -318 0
-487 -316 0
-488 -317 0
-489 -318 0
-490 -316 0
-491 -317 0
-492 -318 0
-559 -316 0
-560 -317 0
-561 -318 0
-334 -319 0
-335 -320 0
-336 -321 0
-367 -319 0
-368 -320 0
-369 -321 0
-418 -319 0
-419 -320 0
-420 -321 0
-451 -319 0
-452 -320 0
-453 -321 0
-340 -322 0
-341 -323 0
-342 -324 0
-349 -322 0
-350 -323 0
-351 -324 0
-352 -322 0
-353 -323 0
-354 -324 0
-379 -322 0
-380 -323 0
-381 -324 0
-454 -322 0
-455 -323 0
-456 -324 0
-568 -322 0
-569 -323 0
-570 -324 0
-379 -325 0
-380 -326 0
-381 -327 0
-331 -328 0
-332 -329 0
-333 -330 0
-523 -328 0
-524 -329 0
-525 -330 0
-487 -331 0
-488 -332 0
-489 -333 0
-550 -331 0
-551 -332 0
-552 -333 0
-379 -334 0
-380 -335 0
-381 -336 0
-439 -334 0
-440 -335 0
-441 -336 0
-526 -334 0
-527 -335 0
-528 -336 0
-556 -334 0
-557 -335 0
-558 -336 0
-532 -340 0
-533 -341 0
-534 -342 0
-535 -340 0
-536 -341 0
-537 -342 0
-454 -343 0
-455 -344 0
-456 -345 0
-472 -343 0
-473 -344 0
-474 -345 0
-424 -346 0
-425 -347 0
-426 -348 0
-586 -346 0
-587 -347 0
-588 -348 0
-595 -349 0
-596 -350 0
-597 -351 0
-541 -355 0
-542 -356 0
-543 -357 0
-379 -358 0
-380 -359 0
-381 -360 0
-505 -358 0
-506 -359 0
-507 -360 0
-565 -358 0
-566 -359 0
-567 -360 0
-403 -361 0
-404 -362 0
-405 -363 0
-388 -364 0
-389 -365 0
-390 -366 0
-508 -364 0
-509 -365 0
-510 -366 0
-427 -367 0
-428 -368 0
-429 -369 0
-577 -367 0
-578 -368 0
-579 -369 0
-514 -370 0
-515 -371 0
-516 -372 0
-535 -370 0
-536 -371 0
-537 -372 0
-547 -370 0
-548 -371 0
-549 -372 0
-568 -370 0
-569 -371 0
-570 -372 0
-382 -376 0
-383 -377 0
-384 -378 0
-460 -379 0
-461 -380 0
-462 -381 0
-550 -379 0
-551 -380 0
-552 -381 0
-562 -382 0
-563 -383 0
-564 -384 0
-574 -382 0
-575 -383 0
-576 -384 0
-418 -385 0
-419 -386 0
-420 -387 0
-466 -385 0
-467 -386 0
-468 -387 0
-592 -385 0
-593 -386 0
-594 -387 0
-541 -391 0
-542 -392 0
-543 -393 0
-460 -394 0
-461 -395 0
-462 -396 0
-484 -397 0
-485 -398 0
-486 -399 0
-496 -397 0
-497 -398 0
-498 -399 0
-508 -397 0
-509 -398 0
-510 -399 0
-565 -400 0
-566 -401 0
-567 -402 0
-451 -403 0
-452 -404 0
-453 -405 0
-475 -403 0
-476 -404 0
-477 -405 0
-412 -406 0
-413 -407 0
-414 -408 0
-436 -409 0
-437 -410 0
-438 -411 0
-532 -409 0
-533 -410 0
-534 -411 0
-421 -412 0
-422 -413 0
-423 -414 0
-436 -412 0
-437 -413 0
-438 -414 0
-466 -415 0
-467 -416 0
-468 -417 0
-517 -418 0
-518 -419 0
-519 -420 0
-520 -418 0
-521 -419 0
-522 -420 0
-556 -421 0
-557 -422 0
-558 -423 0
-445 -427 0
-446 -428 0
-447 -429 0
-583 -427 0
-584 -428 0
-585 -429 0
-433 -430 0
-434 -431 0
-435 -432 0
-511 -430 0
-512 -431 0
-513 -432 0
-457 -433 0
-458 -434 0
-459 -435 0
-556 -433 0
-557 -434 0
-558 -435 0
-559 -433 0
-560 -434 0
-561 -435 0
-574 -433 0
-575 -434 0
-576 -435 0
-550 -436 0
-551 -437 0
-552 -438 0
-478 -439 0
-479 -440 0
-480 -441 0
-550 -439 0
-551 -440 0
-552 -441 0
-583 -442 0
-584 -443 0
-585 -444 0
-499 -445 0
-500 -446 0
-501 -447 0
-523 -445 0
-524 -446 0
-525 -447 0
-589 -448 0
-590 -449 0
-591 -450 0
-457 -451 0
-458 -452 0
-459 -453 0
-466 -451 0
-467 -452 0
-468 -453 0
-565 -451 0
-566 -452 0
-567 -453 0
-463 -457 0
-464 -458 0
-465 -459 0
-496 -460 0
-497 -461 0
-498 -462 0
-523 -460 0
-524 -461 0
-525 -462 0
-532 -463 0
-533 -464 0
-534 -465 0
-493 -469 0
-494 -470 0
-495 -471 0
-538 -469 0
-539 -470 0
-540 -471 0
-505 -475 0
-506 -476 0
-507 -477 0
-505 -484 0
-506 -485 0
-507 -486 0
-526 -487 0
-527 -488 0
-528 -489 0
-544 -493 0
-545 -494 0
-546 -495 0
-589 -493 0
-590 -494 0
-591 -495 0
-541 -499 0
-542 -500 0
-543 -501 0
-559 -502 0
-560 -503 0
-561 -504 0
-589 -502 0
-590 -503 0
-591 -504 0
-595 -502 0
-596 -503 0
-597 -504 0
-598 -508 0
-599 -509 0
-600 -510 0
-568 -526 0
-569 -527 0
-570 -528 0
-589 -526 0
-590 -527 0
-591 -528 0
-562 -529 0
-563 -530 0
-564 -531 0
-553 -535 0
-554 -536 0
-555 -537 0
-565 -541 0
-566 -542 0
-567 -543 0
-574 -550 0
-575 -551 0
-576 -552 0
-580 -553 0
-581 -554 0
-582 -555 0
-580 -559 0
-581 -560 0
-582 -561 0
-598 -574 0
-599 -575 0
-600 -576 0
